31 31
19
3 3 28 28
3 4 22 27
3 5 28 23
3 6 28 17
3 7 28 10
3 8 25 23
3 9 19 22
3 10 28 0
3 11 25 12
3 12 25 0
3 13 22 14
3 14 22 0
3 22 19 0
3 31 16 0
4 3 12 28
4 7 12 21
4 8 12 13
4 13 12 0
12 31 0 0
